c nIsolatedPIs 8
c maxPI 56
p cnf 230 523
c gate 57 26 54 0
26 -57 0
54 -57 0
-26 -54 57 0
c gate 58 -26 -54 0
-26 -58 0
-54 -58 0
26 54 58 0
c gate 59 -57 -58 0
-57 -59 0
-58 -59 0
57 58 59 0
c gate 60 25 53 0
25 -60 0
53 -60 0
-25 -53 60 0
c gate 61 18 46 0
18 -61 0
46 -61 0
-18 -46 61 0
c gate 62 17 45 0
17 -62 0
45 -62 0
-17 -45 62 0
c gate 63 -61 -62 0
-61 -63 0
-62 -63 0
61 62 63 0
c gate 64 20 48 0
20 -64 0
48 -64 0
-20 -48 64 0
c gate 65 -20 -48 0
-20 -65 0
-48 -65 0
20 48 65 0
c gate 66 19 47 0
19 -66 0
47 -66 0
-19 -47 66 0
c gate 67 -65 66 0
-65 -67 0
66 -67 0
65 -66 67 0
c gate 68 -64 -67 0
-64 -68 0
-67 -68 0
64 67 68 0
c gate 69 -18 -46 0
-18 -69 0
-46 -69 0
18 46 69 0
c gate 70 -19 -47 0
-19 -70 0
-47 -70 0
19 47 70 0
c gate 71 -65 -70 0
-65 -71 0
-70 -71 0
65 70 71 0
c gate 72 -69 71 0
-69 -72 0
71 -72 0
69 -71 72 0
c gate 73 68 72 0
68 -73 0
72 -73 0
-68 -72 73 0
c gate 74 -63 73 0
-63 -74 0
73 -74 0
63 -73 74 0
c gate 75 -17 -45 0
-17 -75 0
-45 -75 0
17 45 75 0
c gate 76 63 73 0
63 -76 0
73 -76 0
-63 -73 76 0
c gate 77 -75 76 0
-75 -77 0
76 -77 0
75 -76 77 0
c gate 78 -16 -44 0
-16 -78 0
-44 -78 0
16 44 78 0
c gate 79 16 44 0
16 -79 0
44 -79 0
-16 -44 79 0
c gate 80 15 43 0
15 -80 0
43 -80 0
-15 -43 80 0
c gate 81 -79 -80 0
-79 -81 0
-80 -81 0
79 80 81 0
c gate 82 -78 -81 0
-78 -82 0
-81 -82 0
78 81 82 0
c gate 83 -14 -42 0
-14 -83 0
-42 -83 0
14 42 83 0
c gate 84 -15 -43 0
-15 -84 0
-43 -84 0
15 43 84 0
c gate 85 -78 -84 0
-78 -85 0
-84 -85 0
78 84 85 0
c gate 86 -83 85 0
-83 -86 0
85 -86 0
83 -85 86 0
c gate 87 81 86 0
81 -87 0
86 -87 0
-81 -86 87 0
c gate 88 13 41 0
13 -88 0
41 -88 0
-13 -41 88 0
c gate 89 12 40 0
12 -89 0
40 -89 0
-12 -40 89 0
c gate 90 11 39 0
11 -90 0
39 -90 0
-11 -39 90 0
c gate 91 -89 -90 0
-89 -91 0
-90 -91 0
89 90 91 0
c gate 92 -11 -39 0
-11 -92 0
-39 -92 0
11 39 92 0
c gate 93 -10 -38 0
-10 -93 0
-38 -93 0
10 38 93 0
c gate 94 -92 -93 0
-92 -94 0
-93 -94 0
92 93 94 0
c gate 95 -6 -34 0
-6 -95 0
-34 -95 0
6 34 95 0
c gate 96 -7 -35 0
-7 -96 0
-35 -96 0
7 35 96 0
c gate 97 -95 -96 0
-95 -97 0
-96 -97 0
95 96 97 0
c gate 98 5 33 0
5 -98 0
33 -98 0
-5 -33 98 0
c gate 99 6 34 0
6 -99 0
34 -99 0
-6 -34 99 0
c gate 100 -98 -99 0
-98 -100 0
-99 -100 0
98 99 100 0
c gate 101 97 -100 0
97 -101 0
-100 -101 0
-97 100 101 0
c gate 102 8 36 0
8 -102 0
36 -102 0
-8 -36 102 0
c gate 103 7 35 0
7 -103 0
35 -103 0
-7 -35 103 0
c gate 104 -102 -103 0
-102 -104 0
-103 -104 0
102 103 104 0
c gate 105 -101 104 0
-101 -105 0
104 -105 0
101 -104 105 0
c gate 106 -8 -36 0
-8 -106 0
-36 -106 0
8 36 106 0
c gate 107 -9 -37 0
-9 -107 0
-37 -107 0
9 37 107 0
c gate 108 -106 -107 0
-106 -108 0
-107 -108 0
106 107 108 0
c gate 109 -105 108 0
-105 -109 0
108 -109 0
105 -108 109 0
c gate 110 10 38 0
10 -110 0
38 -110 0
-10 -38 110 0
c gate 111 9 37 0
9 -111 0
37 -111 0
-9 -37 111 0
c gate 112 -110 -111 0
-110 -112 0
-111 -112 0
110 111 112 0
c gate 113 -109 112 0
-109 -113 0
112 -113 0
109 -112 113 0
c gate 114 94 -113 0
94 -114 0
-113 -114 0
-94 113 114 0
c gate 115 91 -114 0
91 -115 0
-114 -115 0
-91 114 115 0
c gate 116 2 30 0
2 -116 0
30 -116 0
-2 -30 116 0
c gate 117 1 29 0
1 -117 0
29 -117 0
-1 -29 117 0
c gate 118 -116 -117 0
-116 -118 0
-117 -118 0
116 117 118 0
c gate 119 -3 -31 0
-3 -119 0
-31 -119 0
3 31 119 0
c gate 120 -2 -30 0
-2 -120 0
-30 -120 0
2 30 120 0
c gate 121 -119 -120 0
-119 -121 0
-120 -121 0
119 120 121 0
c gate 122 -118 121 0
-118 -122 0
121 -122 0
118 -121 122 0
c gate 123 3 31 0
3 -123 0
31 -123 0
-3 -31 123 0
c gate 124 4 32 0
4 -124 0
32 -124 0
-4 -32 124 0
c gate 125 -123 -124 0
-123 -125 0
-124 -125 0
123 124 125 0
c gate 126 -122 125 0
-122 -126 0
125 -126 0
122 -125 126 0
c gate 127 -4 -32 0
-4 -127 0
-32 -127 0
4 32 127 0
c gate 128 -5 -33 0
-5 -128 0
-33 -128 0
5 33 128 0
c gate 129 -106 -128 0
-106 -129 0
-128 -129 0
106 128 129 0
c gate 130 -127 129 0
-127 -130 0
129 -130 0
127 -129 130 0
c gate 131 97 130 0
97 -131 0
130 -131 0
-97 -130 131 0
c gate 132 -126 131 0
-126 -132 0
131 -132 0
126 -131 132 0
c gate 133 105 132 0
105 -133 0
132 -133 0
-105 -132 133 0
c gate 134 -107 -111 0
-107 -134 0
-111 -134 0
107 111 134 0
c gate 135 94 134 0
94 -135 0
134 -135 0
-94 -134 135 0
c gate 136 133 135 0
133 -136 0
135 -136 0
-133 -135 136 0
c gate 137 115 -136 0
115 -137 0
-136 -137 0
-115 136 137 0
c gate 138 -13 -41 0
-13 -138 0
-41 -138 0
13 41 138 0
c gate 139 -12 -40 0
-12 -139 0
-40 -139 0
12 40 139 0
c gate 140 -88 -139 0
-88 -140 0
-139 -140 0
88 139 140 0
c gate 141 -138 140 0
-138 -141 0
140 -141 0
138 -140 141 0
c gate 142 -137 141 0
-137 -142 0
141 -142 0
137 -141 142 0
c gate 143 -88 -142 0
-88 -143 0
-142 -143 0
88 142 143 0
c gate 144 14 42 0
14 -144 0
42 -144 0
-14 -42 144 0
c gate 145 87 -144 0
87 -145 0
-144 -145 0
-87 144 145 0
c gate 146 143 145 0
143 -146 0
145 -146 0
-143 -145 146 0
c gate 147 87 -146 0
87 -147 0
-146 -147 0
-87 146 147 0
c gate 148 -82 -147 0
-82 -148 0
-147 -148 0
82 147 148 0
c gate 149 77 -148 0
77 -149 0
-148 -149 0
-77 148 149 0
c gate 150 68 -149 0
68 -150 0
-149 -150 0
-68 149 150 0
c gate 151 -74 150 0
-74 -151 0
150 -151 0
74 -150 151 0
c gate 152 24 52 0
24 -152 0
52 -152 0
-24 -52 152 0
c gate 153 -24 -52 0
-24 -153 0
-52 -153 0
24 52 153 0
c gate 154 23 51 0
23 -154 0
51 -154 0
-23 -51 154 0
c gate 155 -153 154 0
-153 -155 0
154 -155 0
153 -154 155 0
c gate 156 -152 -155 0
-152 -156 0
-155 -156 0
152 155 156 0
c gate 157 -22 -50 0
-22 -157 0
-50 -157 0
22 50 157 0
c gate 158 -23 -51 0
-23 -158 0
-51 -158 0
23 51 158 0
c gate 159 -153 -158 0
-153 -159 0
-158 -159 0
153 158 159 0
c gate 160 -157 159 0
-157 -160 0
159 -160 0
157 -159 160 0
c gate 161 156 160 0
156 -161 0
160 -161 0
-156 -160 161 0
c gate 162 -21 -49 0
-21 -162 0
-49 -162 0
21 49 162 0
c gate 163 21 49 0
21 -163 0
49 -163 0
-21 -49 163 0
c gate 164 22 50 0
22 -164 0
50 -164 0
-22 -50 164 0
c gate 165 -163 -164 0
-163 -165 0
-164 -165 0
163 164 165 0
c gate 166 -162 165 0
-162 -166 0
165 -166 0
162 -165 166 0
c gate 167 161 166 0
161 -167 0
166 -167 0
-161 -166 167 0
c gate 168 -151 167 0
-151 -168 0
167 -168 0
151 -167 168 0
c gate 169 161 -165 0
161 -169 0
-165 -169 0
-161 165 169 0
c gate 170 156 -169 0
156 -170 0
-169 -170 0
-156 169 170 0
c gate 171 -168 170 0
-168 -171 0
170 -171 0
168 -170 171 0
c gate 172 -25 -53 0
-25 -172 0
-53 -172 0
25 53 172 0
c gate 173 -60 -172 0
-60 -173 0
-172 -173 0
60 172 173 0
c gate 174 -171 173 0
-171 -174 0
173 -174 0
171 -173 174 0
c gate 175 -60 -174 0
-60 -175 0
-174 -175 0
60 174 175 0
c gate 176 59 -175 0
59 -176 0
-175 -176 0
-59 175 176 0
c gate 177 -59 175 0
-59 -177 0
175 -177 0
59 -175 177 0
c gate 178 -176 -177 0
-176 -178 0
-177 -178 0
176 177 178 0
c gate 179 -170 -172 0
-170 -179 0
-172 -179 0
170 172 179 0
c gate 180 -60 -179 0
-60 -180 0
-179 -180 0
60 179 180 0
c gate 181 -59 180 0
-59 -181 0
180 -181 0
59 -180 181 0
c gate 182 59 -180 0
59 -182 0
-180 -182 0
-59 180 182 0
c gate 183 -181 -182 0
-181 -183 0
-182 -183 0
181 182 183 0
c gate 184 178 -183 0
178 -184 0
-183 -184 0
-178 183 184 0
c gate 185 170 -173 0
170 -185 0
-173 -185 0
-170 173 185 0
c gate 186 168 185 0
168 -186 0
185 -186 0
-168 -185 186 0
c gate 187 -184 -186 0
-184 -187 0
-186 -187 0
184 186 187 0
c gate 188 -178 183 0
-178 -188 0
183 -188 0
178 -183 188 0
c gate 189 187 -188 0
187 -189 0
-188 -189 0
-187 188 189 0
c gate 190 76 150 0
76 -190 0
150 -190 0
-76 -150 190 0
c gate 191 167 190 0
167 -191 0
190 -191 0
-167 -190 191 0
c gate 192 91 -94 0
91 -192 0
-94 -192 0
-91 94 192 0
c gate 193 141 -192 0
141 -193 0
-192 -193 0
-141 192 193 0
c gate 194 143 193 0
143 -194 0
193 -194 0
-143 -193 194 0
c gate 195 91 -139 0
91 -195 0
-139 -195 0
-91 139 195 0
c gate 196 94 195 0
94 -196 0
195 -196 0
-94 -195 196 0
c gate 197 -193 196 0
-193 -197 0
196 -197 0
193 -196 197 0
c gate 198 137 197 0
137 -198 0
197 -198 0
-137 -197 198 0
c gate 199 -194 -198 0
-194 -199 0
-198 -199 0
194 198 199 0
c gate 200 136 -139 0
136 -200 0
-139 -200 0
-136 139 200 0
c gate 201 115 200 0
115 -201 0
200 -201 0
-115 -200 201 0
c gate 202 199 -201 0
199 -202 0
-201 -202 0
-199 201 202 0
c gate 203 -146 202 0
-146 -203 0
202 -203 0
146 -202 203 0
c gate 204 133 203 0
133 -204 0
203 -204 0
-133 -203 204 0
c gate 205 -190 204 0
-190 -205 0
204 -205 0
190 -204 205 0
c gate 206 -191 -205 0
-191 -206 0
-205 -206 0
191 205 206 0
c gate 207 189 -206 0
189 -207 0
-206 -207 0
-189 206 207 0
c gate 208 28 -56 0
28 -208 0
-56 -208 0
-28 56 208 0
c gate 209 -28 56 0
-28 -209 0
56 -209 0
28 -56 209 0
c gate 210 -208 -209 0
-208 -210 0
-209 -210 0
208 209 210 0
c gate 211 -27 -55 0
-27 -211 0
-55 -211 0
27 55 211 0
c gate 212 27 55 0
27 -212 0
55 -212 0
-27 -55 212 0
c gate 213 -211 -212 0
-211 -213 0
-212 -213 0
211 212 213 0
c gate 214 -210 213 0
-210 -214 0
213 -214 0
210 -213 214 0
c gate 215 -57 -214 0
-57 -215 0
-214 -215 0
57 214 215 0
c gate 216 -182 215 0
-182 -216 0
215 -216 0
182 -215 216 0
c gate 217 176 216 0
176 -217 0
216 -217 0
-176 -216 217 0
c gate 218 59 214 0
59 -218 0
214 -218 0
-59 -214 218 0
c gate 219 174 218 0
174 -219 0
218 -219 0
-174 -218 219 0
c gate 220 -217 -219 0
-217 -220 0
-219 -220 0
217 219 220 0
c gate 221 187 220 0
187 -221 0
220 -221 0
-187 -220 221 0
c gate 222 -207 221 0
-207 -222 0
221 -222 0
207 -221 222 0
c gate 223 77 146 0
77 -223 0
146 -223 0
-77 -146 223 0
c gate 224 -203 -223 0
-203 -224 0
-223 -224 0
203 223 224 0
c gate 225 -190 -224 0
-190 -225 0
-224 -225 0
190 224 225 0
c gate 226 -222 -225 0
-222 -226 0
-225 -226 0
222 225 226 0
c gate 227 -191 226 0
-191 -227 0
226 -227 0
191 -226 227 0
c gate 228 189 227 0
189 -228 0
227 -228 0
-189 -227 228 0
c gate 229 -189 -227 0
-189 -229 0
-227 -229 0
189 227 229 0
c gate 230 -228 -229 0
-228 -230 0
-229 -230 0
228 229 230 0
c PO
-230 0
